tsp_instances/TSP20/instance58.tsp
NODE_COORD_SECTION
0 9 193
1 146 122
2 117 42
3 80 68
4 73 28
5 115 86
6 161 120
7 61 100
8 5 139
9 22 130
10 164 122
11 93 59
12 129 57
13 134 52
14 78 44
15 140 0
16 39 83
17 24 150
18 187 53
19 126 159
