tsp_instances/TSP20/instance58.opt.tour
TOUR_SECTION
1
18
9
10
17
8
4
15
5
12
6
13
14
3
16
19
11
7
2
20
-1